32      1       
16      
0       0       3       2       3       4       
5       0       3       5       6       11      
3       8       3       7       12      21      
2       0       1       9       
3       8       1       31      
1       0       3       8       13      17      
2       3       3       10      20      27      
2       0       1       29      
4       3       1       20      
5       0       1       16      
8       0       2       12      15      
1       0       1       24      
7       7       1       14      
3       0       3       19      26      30      
2       0       1       24      
3       0       3       18      22      30      
8       2       2       20      30      
9       3       1       19      
1       10      2       23      28      
2       5       1       25      
3       10      1       28      
8       7       1       31      
3       4       1       31      
1       0       1       27      
3       4       1       28      
7       3       1       27      
10      0       1       29      
9       0       1       29      
2       0       1       32      
7       4       1       32      
4       0       1       32      
0       0       0       